(set-logic QF_SLIA)
(declare-fun var0 () String)
(assert (not (str.in_re var0 (re.++ ((_ re.loop 11 344) (re.++ (re.union (str.to_re "0") (re.union (str.to_re "fD") (re.union (str.to_re "X") (str.to_re "2$")))) (re.++ (re.union (str.to_re "5") (re.union (str.to_re "wKT") (re.union (str.to_re "`VE") (str.to_re "_a^")))) (re.++ (re.union (str.to_re "I") (re.union (str.to_re "LAL") (re.union (str.to_re "XC") (str.to_re "Y")))) (re.union (str.to_re "l(`") (re.union (str.to_re "x") (re.union (str.to_re "QB") (str.to_re "2|<")))))))) (re.++ ((_ re.loop 15 855) (re.++ (re.union (str.to_re "vN") (re.union (str.to_re ":") (re.union (str.to_re "-D") (str.to_re "{")))) (re.++ (re.union (str.to_re "@") (re.union (str.to_re "\\kg") (re.union (str.to_re "8") (str.to_re "uZ")))) (re.++ (re.union (str.to_re ">Oo") (re.union (str.to_re "-") (re.union (str.to_re "q") (str.to_re "W")))) (re.union (str.to_re "h:") (re.union (str.to_re "n") (re.union (str.to_re "sN") (str.to_re "b`")))))))) (re.++ ((_ re.loop 17 39) (re.++ (re.union (str.to_re "dkV") (re.union (str.to_re "L") (re.union (str.to_re "O_R") (str.to_re "9w")))) (re.++ (re.union (str.to_re "k") (re.union (str.to_re "LJ") (re.union (str.to_re "A") (str.to_re "#PT")))) (re.++ (re.union (str.to_re "R") (re.union (str.to_re "g") (re.union (str.to_re "G0") (str.to_re "Ol")))) (re.union (str.to_re ";<") (re.union (str.to_re "+") (re.union (str.to_re "t") (str.to_re ".")))))))) ((_ re.loop 2 743) (re.++ (re.union (str.to_re "O") (re.union (str.to_re "v1") (re.union (str.to_re "_") (str.to_re "7")))) (re.++ (re.union (str.to_re "{e?") (re.union (str.to_re "`") (re.union (str.to_re "Pa") (str.to_re "i")))) (re.++ (re.union (str.to_re "nz2") (re.union (str.to_re "p") (re.union (str.to_re "_") (str.to_re "X@2")))) (re.union (str.to_re "hG(") (re.union (str.to_re "l?") (re.union (str.to_re "G") (str.to_re "1"))))))))))))))
(assert (not (str.in_re var0 (re.++ ((_ re.loop 10 113) (re.++ (re.union (str.to_re "\u0022x_") (re.union (str.to_re "tO5") (re.union (str.to_re "Pj") (str.to_re "#28")))) (re.++ (re.union (str.to_re "ieh") (re.union (str.to_re ".1") (re.union (str.to_re "r") (str.to_re "$)")))) (re.++ (re.union (str.to_re ":m") (re.union (str.to_re "i") (re.union (str.to_re "+b") (str.to_re "5kl")))) (re.union (str.to_re "X_[") (re.union (str.to_re ">;") (re.union (str.to_re "#") (str.to_re "j{")))))))) (re.++ ((_ re.loop 0 68) (re.++ (re.union (str.to_re "{") (re.union (str.to_re "l") (re.union (str.to_re "v[v") (str.to_re "}H&")))) (re.++ (re.union (str.to_re "\u0022P") (re.union (str.to_re "b") (re.union (str.to_re "^V@") (str.to_re "X")))) (re.++ (re.union (str.to_re "$") (re.union (str.to_re "|") (re.union (str.to_re "R(!") (str.to_re "Y")))) (re.union (str.to_re "C") (re.union (str.to_re "==0") (re.union (str.to_re "4{") (str.to_re "%")))))))) (re.++ ((_ re.loop 14 284) (re.++ (re.union (str.to_re "%") (re.union (str.to_re "B(") (re.union (str.to_re ".") (str.to_re "&")))) (re.++ (re.union (str.to_re "=") (re.union (str.to_re "K") (re.union (str.to_re "%{M") (str.to_re "B")))) (re.++ (re.union (str.to_re "Qa") (re.union (str.to_re "I") (re.union (str.to_re "s") (str.to_re "a")))) (re.union (str.to_re "T9M") (re.union (str.to_re "s:") (re.union (str.to_re "*2") (str.to_re "kxX")))))))) ((_ re.loop 19 438) (re.++ (re.union (str.to_re "ywB") (re.union (str.to_re "s~Y") (re.union (str.to_re "0=J") (str.to_re "c")))) (re.++ (re.union (str.to_re ".+") (re.union (str.to_re "!") (re.union (str.to_re "E3") (str.to_re "!")))) (re.++ (re.union (str.to_re ",<,") (re.union (str.to_re "}") (re.union (str.to_re ">") (str.to_re "j")))) (re.union (str.to_re "^6") (re.union (str.to_re "G") (re.union (str.to_re "g[") (str.to_re "mE"))))))))))))))
(assert (not (str.in_re var0 (re.++ (re.* re.allchar) (re.++ (re.union (str.to_re "<") (re.union (str.to_re ">") (re.union (str.to_re "'") (re.union (str.to_re "\u0022") (str.to_re "&"))))) (re.* re.allchar))))))
(assert (<= 50 (str.len var0)))
(check-sat)
(get-model)
